target_sources(GLPK
  PRIVATE
    cfg1.c
    cfg2.c
    cfg.c
    cfg.h
    clqcut.c
    covgen.c
    fpump.c
    gmicut.c
    gmigen.c
    mirgen.c
    spv.c
    spv.h
)

target_sources(GLPSOL
    PRIVATE
        cfg1.c
        cfg2.c
        cfg.c
        cfg.h
        clqcut.c
        covgen.c
        fpump.c
        gmicut.c
        gmigen.c
        mirgen.c
        spv.c
        spv.h
)